
Gurobi 9.0.1 (linux64) logging started Thu Apr 30 06:03:39 2020

Gurobi Optimizer version 9.0.1 build v9.0.1rc0 (linux64)
Optimize a model with 2234 rows, 2120 columns and 20112 nonzeros
Model fingerprint: 0xd5d392ea
Variable types: 0 continuous, 2120 integer (2106 binary)
Coefficient statistics:
  Matrix range     [1e+00, 7e+00]
  Objective range  [6e+00, 1e+02]
  Bounds range     [1e+00, 1e+00]
  RHS range        [1e+00, 1e+00]

User MIP start produced solution with objective 557 (0.01s)
Loaded user MIP start with objective 557

Presolve removed 1004 rows and 912 columns
Presolve time: 0.12s
Presolved: 1230 rows, 1208 columns, 11904 nonzeros
Variable types: 0 continuous, 1208 integer (1208 binary)

Root relaxation: objective 3.735175e+02, 743 iterations, 0.08 seconds

    Nodes    |    Current Node    |     Objective Bounds      |     Work
 Expl Unexpl |  Obj  Depth IntInf | Incumbent    BestBd   Gap | It/Node Time

     0     0  373.51748    0  319  557.00000  373.51748  32.9%     -    0s
     0     0  398.27406    0  315  557.00000  398.27406  28.5%     -    0s
     0     0  401.32075    0  313  557.00000  401.32075  27.9%     -    0s
     0     0  401.33399    0  315  557.00000  401.33399  27.9%     -    1s
     0     0  401.33886    0  307  557.00000  401.33886  27.9%     -    1s
     0     0  406.80925    0  336  557.00000  406.80925  27.0%     -    1s
     0     0  407.78401    0  334  557.00000  407.78401  26.8%     -    1s
     0     0  407.84634    0  336  557.00000  407.84634  26.8%     -    1s
     0     0  407.87034    0  340  557.00000  407.87034  26.8%     -    1s
     0     0  411.48359    0  330  557.00000  411.48359  26.1%     -    1s
     0     0  411.84211    0  333  557.00000  411.84211  26.1%     -    2s
     0     0  411.97677    0  333  557.00000  411.97677  26.0%     -    2s
     0     0  411.98745    0  327  557.00000  411.98745  26.0%     -    2s
     0     0  412.27184    0  334  557.00000  412.27184  26.0%     -    2s
     0     0  412.30248    0  332  557.00000  412.30248  26.0%     -    2s
     0     0  412.30569    0  332  557.00000  412.30569  26.0%     -    2s
     0     0  412.80410    0  334  557.00000  412.80410  25.9%     -    2s
     0     0  412.85268    0  339  557.00000  412.85268  25.9%     -    2s
     0     0  412.85526    0  339  557.00000  412.85526  25.9%     -    2s
     0     0  414.89224    0  336  557.00000  414.89224  25.5%     -    2s
     0     0  415.02051    0  337  557.00000  415.02051  25.5%     -    2s
     0     0  415.02400    0  336  557.00000  415.02400  25.5%     -    2s
     0     0  415.47262    0  332  557.00000  415.47262  25.4%     -    2s
     0     0  415.58134    0  336  557.00000  415.58134  25.4%     -    2s
     0     0  415.61370    0  329  557.00000  415.61370  25.4%     -    2s
     0     0  415.62136    0  334  557.00000  415.62136  25.4%     -    2s
     0     0  415.70260    0  332  557.00000  415.70260  25.4%     -    2s
     0     0  415.71686    0  337  557.00000  415.71686  25.4%     -    2s
     0     0  415.82675    0  339  557.00000  415.82675  25.3%     -    2s
     0     0  415.82675    0  338  557.00000  415.82675  25.3%     -    2s
     0     0  415.89628    0  316  557.00000  415.89628  25.3%     -    3s
     0     0  415.89628    0  324  557.00000  415.89628  25.3%     -    3s
     0     0  415.89628    0  328  557.00000  415.89628  25.3%     -    3s
     0     0  415.89628    0  330  557.00000  415.89628  25.3%     -    3s
     0     0  415.89628    0  338  557.00000  415.89628  25.3%     -    3s
     0     0  415.89628    0  323  557.00000  415.89628  25.3%     -    3s
     0     0  415.89628    0  325  557.00000  415.89628  25.3%     -    3s
     0     0  415.89628    0  326  557.00000  415.89628  25.3%     -    3s
     0     0  415.89628    0  348  557.00000  415.89628  25.3%     -    4s
     0     0  415.89628    0  345  557.00000  415.89628  25.3%     -    4s
     0     0  415.89628    0  346  557.00000  415.89628  25.3%     -    4s
     0     0  416.79934    0  348  557.00000  416.79934  25.2%     -    4s
     0     0  416.95704    0  346  557.00000  416.95704  25.1%     -    4s
     0     0  416.97569    0  345  557.00000  416.97569  25.1%     -    4s
     0     0  417.21136    0  351  557.00000  417.21136  25.1%     -    4s
     0     0  417.24827    0  352  557.00000  417.24827  25.1%     -    4s
     0     0  417.25498    0  355  557.00000  417.25498  25.1%     -    4s
     0     0  417.37478    0  350  557.00000  417.37478  25.1%     -    4s
     0     0  417.37478    0  349  557.00000  417.37478  25.1%     -    4s
     0     2  417.42342    0  349  557.00000  417.42342  25.1%     -    4s
     1     4  441.13860    1  254  557.00000  417.42342  25.1%  1037    5s
H   83    54                     511.0000000  426.70555  16.5%   229    8s
   164   115  496.03939   20  219  511.00000  441.27079  13.6%   198   10s
   472   176  491.44652   19  175  511.00000  454.88203  11.0%   139   15s
   739   191     cutoff   23       511.00000  460.35478  9.91%   127   20s
  1110   205  497.87758   18  224  511.00000  469.23944  8.17%   115   25s
  1452   190     cutoff   11       511.00000  477.23596  6.61%   111   30s

Cutting planes:
  Gomory: 1
  Cover: 3
  MIR: 4
  Inf proof: 5
  Zero half: 24
  Mod-K: 1
  RLT: 149

Explored 1929 nodes (201197 simplex iterations) in 34.77 seconds
Thread count was 1 (of 40 available processors)

Solution count 2: 511 557 

Optimal solution found (tolerance 1.00e-04)
Best objective 5.110000000000e+02, best bound 5.110000000000e+02, gap 0.0000%

User-callback calls 9547, time in user-callback 0.01 sec
